p cnf 100 1
100 0
w 1 0.688118
w 2 1 1
w 2 -1 0
w 3 2 0
w 3 -2 1
w 4 3 0
w 4 -3 1
w 5 4 0.64003
w 5 -4 0.463174
w 6 5 0.478589
w 6 -5 0.615693
w 7 6 0
w 7 -6 1
w 8 7 0.853361
w 8 -7 0.465053
w 9 8 0.641405
w 9 -8 0.623771
w 10 9 0
w 10 -9 1
w 11 1 0.465633
w 11 -1 0.349811
w 12 11 2 1
w 12 11 -2 1
w 12 -11 2 0
w 12 -11 -2 1
w 13 12 3 0.989669
w 13 12 -3 0.192133
w 13 -12 3 0.201157
w 13 -12 -3 0.880726
w 14 13 4 1
w 14 13 -4 0
w 14 -13 4 1
w 14 -13 -4 0
w 15 14 5 0.612329
w 15 14 -5 0.484447
w 15 -14 5 0.887061
w 15 -14 -5 0.194684
w 16 15 6 1
w 16 15 -6 1
w 16 -15 6 0
w 16 -15 -6 1
w 17 16 7 0.227045
w 17 16 -7 0.133961
w 17 -16 7 0.23701
w 17 -16 -7 0.576856
w 18 17 8 1
w 18 17 -8 0
w 18 -17 8 0
w 18 -17 -8 0
w 19 18 9 0.428409
w 19 18 -9 0.380647
w 19 -18 9 0.983495
w 19 -18 -9 0.309135
w 20 19 10 0.389075
w 20 19 -10 0.896846
w 20 -19 10 0.00809691
w 20 -19 -10 0.257829
w 21 11 0
w 21 -11 1
w 22 21 12 0.286183
w 22 21 -12 0.81511
w 22 -21 12 0.935877
w 22 -21 -12 0.0266053
w 23 22 13 1
w 23 22 -13 1
w 23 -22 13 1
w 23 -22 -13 0
w 24 23 14 0.892316
w 24 23 -14 0.676521
w 24 -23 14 0.212333
w 24 -23 -14 0.362205
w 25 24 15 0
w 25 24 -15 0
w 25 -24 15 1
w 25 -24 -15 1
w 26 25 16 0
w 26 25 -16 1
w 26 -25 16 1
w 26 -25 -16 0
w 27 26 17 1
w 27 26 -17 0
w 27 -26 17 0
w 27 -26 -17 1
w 28 27 18 0
w 28 27 -18 1
w 28 -27 18 1
w 28 -27 -18 0
w 29 28 19 1
w 29 28 -19 0
w 29 -28 19 0
w 29 -28 -19 0
w 30 29 20 1
w 30 29 -20 0
w 30 -29 20 1
w 30 -29 -20 1
w 31 21 0.229695
w 31 -21 0.451359
w 32 31 22 1
w 32 31 -22 0
w 32 -31 22 1
w 32 -31 -22 1
w 33 32 23 1
w 33 32 -23 0
w 33 -32 23 1
w 33 -32 -23 0
w 34 33 24 0
w 34 33 -24 1
w 34 -33 24 0
w 34 -33 -24 0
w 35 34 25 0.682308
w 35 34 -25 0.100311
w 35 -34 25 0.788103
w 35 -34 -25 0.351075
w 36 35 26 0.34378
w 36 35 -26 0.778197
w 36 -35 26 0.153612
w 36 -35 -26 0.534935
w 37 36 27 0
w 37 36 -27 1
w 37 -36 27 0
w 37 -36 -27 0
w 38 37 28 1
w 38 37 -28 1
w 38 -37 28 1
w 38 -37 -28 0
w 39 38 29 0.224236
w 39 38 -29 0.983312
w 39 -38 29 0.0646805
w 39 -38 -29 0.91
w 40 39 30 1
w 40 39 -30 0
w 40 -39 30 0
w 40 -39 -30 1
w 41 31 1
w 41 -31 0
w 42 41 32 0.859183
w 42 41 -32 0.61466
w 42 -41 32 0.79241
w 42 -41 -32 0.202963
w 43 42 33 1
w 43 42 -33 0
w 43 -42 33 0
w 43 -42 -33 1
w 44 43 34 0.269769
w 44 43 -34 0.328793
w 44 -43 34 0.0661018
w 44 -43 -34 0.531635
w 45 44 35 1
w 45 44 -35 0
w 45 -44 35 0
w 45 -44 -35 0
w 46 45 36 0.568759
w 46 45 -36 0.639676
w 46 -45 36 0.0683246
w 46 -45 -36 0.392104
w 47 46 37 0
w 47 46 -37 0
w 47 -46 37 0
w 47 -46 -37 1
w 48 47 38 1
w 48 47 -38 1
w 48 -47 38 1
w 48 -47 -38 0
w 49 48 39 0.800632
w 49 48 -39 0.941019
w 49 -48 39 0.411196
w 49 -48 -39 0.823192
w 50 49 40 0.680966
w 50 49 -40 0.151985
w 50 -49 40 0.683441
w 50 -49 -40 0.2126
w 51 41 0.420894
w 51 -41 0.718041
w 52 51 42 0.924972
w 52 51 -42 0.447718
w 52 -51 42 0.479546
w 52 -51 -42 0.493732
w 53 52 43 1
w 53 52 -43 1
w 53 -52 43 0
w 53 -52 -43 1
w 54 53 44 0
w 54 53 -44 0
w 54 -53 44 0
w 54 -53 -44 1
w 55 54 45 0.979642
w 55 54 -45 0.501548
w 55 -54 45 0.559213
w 55 -54 -45 0.780274
w 56 55 46 1
w 56 55 -46 0
w 56 -55 46 1
w 56 -55 -46 0
w 57 56 47 0.743347
w 57 56 -47 0.863976
w 57 -56 47 0.267441
w 57 -56 -47 0.164241
w 58 57 48 0.771552
w 58 57 -48 0.0892131
w 58 -57 48 0.0297349
w 58 -57 -48 0.251099
w 59 58 49 0.117129
w 59 58 -49 0.79897
w 59 -58 49 0.46878
w 59 -58 -49 0.27442
w 60 59 50 0.531611
w 60 59 -50 0.572687
w 60 -59 50 0.107104
w 60 -59 -50 0.656643
w 61 51 0.745613
w 61 -51 0.636285
w 62 61 52 1
w 62 61 -52 1
w 62 -61 52 1
w 62 -61 -52 0
w 63 62 53 1
w 63 62 -53 0
w 63 -62 53 0
w 63 -62 -53 0
w 64 63 54 1
w 64 63 -54 1
w 64 -63 54 0
w 64 -63 -54 1
w 65 64 55 0
w 65 64 -55 1
w 65 -64 55 0
w 65 -64 -55 0
w 66 65 56 0.793888
w 66 65 -56 0.860979
w 66 -65 56 0.45527
w 66 -65 -56 0.366576
w 67 66 57 0.111913
w 67 66 -57 0.237689
w 67 -66 57 0.713696
w 67 -66 -57 0.748198
w 68 67 58 0.0185226
w 68 67 -58 0.164757
w 68 -67 58 0.425577
w 68 -67 -58 0.293759
w 69 68 59 0
w 69 68 -59 1
w 69 -68 59 0
w 69 -68 -59 0
w 70 69 60 1
w 70 69 -60 1
w 70 -69 60 0
w 70 -69 -60 1
w 71 61 0.785901
w 71 -61 0.883206
w 72 71 62 0
w 72 71 -62 1
w 72 -71 62 1
w 72 -71 -62 0
w 73 72 63 0.407653
w 73 72 -63 0.465833
w 73 -72 63 0.576805
w 73 -72 -63 0.519565
w 74 73 64 0.290502
w 74 73 -64 0.267763
w 74 -73 64 0.313872
w 74 -73 -64 0.309024
w 75 74 65 0
w 75 74 -65 0
w 75 -74 65 1
w 75 -74 -65 0
w 76 75 66 0.577557
w 76 75 -66 0.959351
w 76 -75 66 0.83411
w 76 -75 -66 0.580728
w 77 76 67 0.217671
w 77 76 -67 0.398368
w 77 -76 67 0.235109
w 77 -76 -67 0.00357216
w 78 77 68 0
w 78 77 -68 0
w 78 -77 68 0
w 78 -77 -68 1
w 79 78 69 1
w 79 78 -69 0
w 79 -78 69 0
w 79 -78 -69 0
w 80 79 70 0.505346
w 80 79 -70 0.411198
w 80 -79 70 0.891426
w 80 -79 -70 0.81437
w 81 71 0.630875
w 81 -71 0.417153
w 82 81 72 1
w 82 81 -72 0
w 82 -81 72 0
w 82 -81 -72 1
w 83 82 73 0
w 83 82 -73 0
w 83 -82 73 1
w 83 -82 -73 0
w 84 83 74 0.295659
w 84 83 -74 0.299246
w 84 -83 74 0.790592
w 84 -83 -74 0.604601
w 85 84 75 1
w 85 84 -75 0
w 85 -84 75 0
w 85 -84 -75 1
w 86 85 76 0.181447
w 86 85 -76 0.774112
w 86 -85 76 0.464385
w 86 -85 -76 0.686794
w 87 86 77 0
w 87 86 -77 0
w 87 -86 77 0
w 87 -86 -77 1
w 88 87 78 0.490046
w 88 87 -78 0.657721
w 88 -87 78 0.158623
w 88 -87 -78 0.528621
w 89 88 79 1
w 89 88 -79 1
w 89 -88 79 1
w 89 -88 -79 0
w 90 89 80 0
w 90 89 -80 1
w 90 -89 80 0
w 90 -89 -80 0
w 91 81 1
w 91 -81 0
w 92 91 82 0.438185
w 92 91 -82 0.760008
w 92 -91 82 0.534593
w 92 -91 -82 0.325016
w 93 92 83 0.308704
w 93 92 -83 0.7894
w 93 -92 83 0.628249
w 93 -92 -83 0.494014
w 94 93 84 1
w 94 93 -84 0
w 94 -93 84 1
w 94 -93 -84 0
w 95 94 85 0
w 95 94 -85 0
w 95 -94 85 1
w 95 -94 -85 0
w 96 95 86 0
w 96 95 -86 1
w 96 -95 86 1
w 96 -95 -86 1
w 97 96 87 0.785303
w 97 96 -87 0.320072
w 97 -96 87 0.661106
w 97 -96 -87 0.210688
w 98 97 88 0
w 98 97 -88 1
w 98 -97 88 0
w 98 -97 -88 0
w 99 98 89 0.408318
w 99 98 -89 0.763289
w 99 -98 89 0.443191
w 99 -98 -89 0.902332
w 100 99 90 0.572605
w 100 99 -90 0.425373
w 100 -99 90 0.0403966
w 100 -99 -90 0.620335